VERTICES = 154
EDGES = 792
1 2
1 4
1 23
1 25
2 3
2 22
2 24
3 6
3 16
3 23
3 27
3 37
4 5
4 16
4 22
4 26
4 37
5 8
5 17
5 25
5 29
5 38
6 7
6 17
6 24
6 28
6 38
7 10
7 18
7 27
7 31
7 39
8 9
8 18
8 26
8 30
8 39
9 12
9 19
9 29
9 33
9 40
10 11
10 19
10 28
10 32
10 40
11 14
11 20
11 31
11 35
11 41
12 13
12 20
12 30
12 34
12 41
13 15
13 21
13 33
13 36
13 42
14 15
14 21
14 32
14 36
14 42
15 16
15 17
15 18
15 19
15 20
15 21
15 34
15 35
15 37
15 38
15 39
15 40
15 41
15 42
16 17
16 18
16 19
16 20
16 21
16 24
16 25
16 36
16 38
16 39
16 40
16 41
16 42
17 18
17 19
17 20
17 21
17 26
17 27
17 36
17 37
17 39
17 40
17 41
17 42
18 19
18 20
18 21
18 28
18 29
18 36
18 37
18 38
18 40
18 41
18 42
19 20
19 21
19 30
19 31
19 36
19 37
19 38
19 39
19 41
19 42
20 21
20 32
20 33
20 36
20 37
20 38
20 39
20 40
20 42
21 34
21 35
21 36
21 37
21 38
21 39
21 40
21 41
22 44
22 46
22 149
23 43
23 45
23 149
24 44
24 48
24 58
24 149
25 43
25 47
25 58
25 149
26 46
26 50
26 59
26 149
27 45
27 49
27 59
27 149
28 48
28 52
28 60
28 149
29 47
29 51
29 60
29 149
30 50
30 54
30 61
30 149
31 49
31 53
31 61
31 149
32 52
32 56
32 62
32 149
33 51
33 55
33 62
33 149
34 54
34 57
34 63
34 149
35 53
35 57
35 63
35 149
36 55
36 56
36 58
36 59
36 60
36 61
36 62
36 63
36 149
37 45
37 46
37 57
37 59
37 60
37 61
37 62
37 63
37 149
38 47
38 48
38 57
38 58
38 60
38 61
38 62
38 63
38 149
39 49
39 50
39 57
39 58
39 59
39 61
39 62
39 63
39 149
40 51
40 52
40 57
40 58
40 59
40 60
40 62
40 63
40 149
41 53
41 54
41 57
41 58
41 59
41 60
41 61
41 63
41 149
42 55
42 56
42 57
42 58
42 59
42 60
42 61
42 62
42 149
43 65
43 67
43 150
44 64
44 66
44 150
45 65
45 69
45 79
45 150
46 64
46 68
46 79
46 150
47 67
47 71
47 80
47 150
48 66
48 70
48 80
48 150
49 69
49 73
49 81
49 150
50 68
50 72
50 81
50 150
51 71
51 75
51 82
51 150
52 70
52 74
52 82
52 150
53 73
53 77
53 83
53 150
54 72
54 76
54 83
54 150
55 75
55 78
55 84
55 150
56 74
56 78
56 84
56 150
57 76
57 77
57 79
57 80
57 81
57 82
57 83
57 84
57 150
58 66
58 67
58 78
58 80
58 81
58 82
58 83
58 84
58 150
59 68
59 69
59 78
59 79
59 81
59 82
59 83
59 84
59 150
60 70
60 71
60 78
60 79
60 80
60 82
60 83
60 84
60 150
61 72
61 73
61 78
61 79
61 80
61 81
61 83
61 84
61 150
62 74
62 75
62 78
62 79
62 80
62 81
62 82
62 84
62 150
63 76
63 77
63 78
63 79
63 80
63 81
63 82
63 83
63 150
64 86
64 88
64 151
65 85
65 87
65 151
66 86
66 90
66 100
66 151
67 85
67 89
67 100
67 151
68 88
68 92
68 101
68 151
69 87
69 91
69 101
69 151
70 90
70 94
70 102
70 151
71 89
71 93
71 102
71 151
72 92
72 96
72 103
72 151
73 91
73 95
73 103
73 151
74 94
74 98
74 104
74 151
75 93
75 97
75 104
75 151
76 96
76 99
76 105
76 151
77 95
77 99
77 105
77 151
78 97
78 98
78 100
78 101
78 102
78 103
78 104
78 105
78 151
79 87
79 88
79 99
79 101
79 102
79 103
79 104
79 105
79 151
80 89
80 90
80 99
80 100
80 102
80 103
80 104
80 105
80 151
81 91
81 92
81 99
81 100
81 101
81 103
81 104
81 105
81 151
82 93
82 94
82 99
82 100
82 101
82 102
82 104
82 105
82 151
83 95
83 96
83 99
83 100
83 101
83 102
83 103
83 105
83 151
84 97
84 98
84 99
84 100
84 101
84 102
84 103
84 104
84 151
85 107
85 109
85 152
86 106
86 108
86 152
87 107
87 111
87 121
87 152
88 106
88 110
88 121
88 152
89 109
89 113
89 122
89 152
90 108
90 112
90 122
90 152
91 111
91 115
91 123
91 152
92 110
92 114
92 123
92 152
93 113
93 117
93 124
93 152
94 112
94 116
94 124
94 152
95 115
95 119
95 125
95 152
96 114
96 118
96 125
96 152
97 117
97 120
97 126
97 152
98 116
98 120
98 126
98 152
99 118
99 119
99 121
99 122
99 123
99 124
99 125
99 126
99 152
100 108
100 109
100 120
100 122
100 123
100 124
100 125
100 126
100 152
101 110
101 111
101 120
101 121
101 123
101 124
101 125
101 126
101 152
102 112
102 113
102 120
102 121
102 122
102 124
102 125
102 126
102 152
103 114
103 115
103 120
103 121
103 122
103 123
103 125
103 126
103 152
104 116
104 117
104 120
104 121
104 122
104 123
104 124
104 126
104 152
105 118
105 119
105 120
105 121
105 122
105 123
105 124
105 125
105 152
106 128
106 130
106 153
107 127
107 129
107 153
108 128
108 132
108 142
108 153
109 127
109 131
109 142
109 153
110 130
110 134
110 143
110 153
111 129
111 133
111 143
111 153
112 132
112 136
112 144
112 153
113 131
113 135
113 144
113 153
114 134
114 138
114 145
114 153
115 133
115 137
115 145
115 153
116 136
116 140
116 146
116 153
117 135
117 139
117 146
117 153
118 138
118 141
118 147
118 153
119 137
119 141
119 147
119 153
120 139
120 140
120 142
120 143
120 144
120 145
120 146
120 147
120 153
121 129
121 130
121 141
121 143
121 144
121 145
121 146
121 147
121 153
122 131
122 132
122 141
122 142
122 144
122 145
122 146
122 147
122 153
123 133
123 134
123 141
123 142
123 143
123 145
123 146
123 147
123 153
124 135
124 136
124 141
124 142
124 143
124 144
124 146
124 147
124 153
125 137
125 138
125 141
125 142
125 143
125 144
125 145
125 147
125 153
126 139
126 140
126 141
126 142
126 143
126 144
126 145
126 146
126 153
127 148
127 154
128 148
128 154
129 148
129 154
130 148
130 154
131 148
131 154
132 148
132 154
133 148
133 154
134 148
134 154
135 148
135 154
136 148
136 154
137 148
137 154
138 148
138 154
139 148
139 154
140 148
140 154
141 148
141 154
142 148
142 154
143 148
143 154
144 148
144 154
145 148
145 154
146 148
146 154
147 148
147 154
148 149
148 150
148 151
148 152
148 153
148 154
149 150
149 151
149 152
149 153
149 154
150 151
150 152
150 153
150 154
151 152
151 153
151 154
152 153
152 154
153 154
